
Gurobi 11.0.3 (linux64) logging started Sun Nov 24 16:54:46 2024

Set parameter LogFile to value "/home/yihong/Coding/OR_SUC/SUC_results_bigM100000_thread4/case24_ieee_rts_theta0.5_epsilon0.05_gurobi_seed1230000_num_gen100_N_WDR100_load_scaling_factor1_exact_T12quadra_cost.txt"
Set parameter TimeLimit to value 3600
Gurobi Optimizer version 11.0.3 build v11.0.3rc0 (linux64 - "Ubuntu 20.04.6 LTS")

CPU model: AMD EPYC 7532 32-Core Processor, instruction set [SSE2|AVX|AVX2]
Thread count: 64 physical cores, 128 logical processors, using up to 4 threads

Optimize a model with 28631 rows, 15081 columns and 662130 nonzeros
Model fingerprint: 0xd5d39e8b
Model has 1200 quadratic constraints
Variable types: 13781 continuous, 1300 integer (1300 binary)
Coefficient statistics:
  Matrix range     [3e-04, 1e+05]
  QMatrix range    [2e-03, 8e-03]
  QLMatrix range   [5e-02, 6e+01]
  Objective range  [1e+00, 1e+00]
  Bounds range     [1e+00, 1e+00]
  RHS range        [1e+00, 1e+05]
Presolve removed 23347 rows and 6423 columns
Presolve time: 0.20s
Presolved: 5284 rows, 8658 columns, 30322 nonzeros
Presolved model has 1200 quadratic constraint(s)
Variable types: 7384 continuous, 1274 integer (1274 binary)

Root relaxation: objective 2.340754e+04, 4122 iterations, 0.08 seconds (0.11 work units)

    Nodes    |    Current Node    |     Objective Bounds      |     Work
 Expl Unexpl |  Obj  Depth IntInf | Incumbent    BestBd   Gap | It/Node Time

     0     0 23407.5388    0   13          - 23407.5388      -     -    0s
     0     0 216890.290    0  314          - 216890.290      -     -    0s
     0     0 217023.890    0  280          - 217023.890      -     -    0s
     0     0 366730.146    0  300          - 366730.146      -     -    0s
     0     0 366737.036    0  300          - 366737.036      -     -    0s
     0     0 366831.399    0  240          - 366831.399      -     -    0s
     0     0 366831.614    0  240          - 366831.614      -     -    0s
     0     0 366831.614    0  240          - 366831.614      -     -    0s
     0     2 366831.740    0  240          - 366831.740      -     -    1s
H  428   339                    366979.02530 366850.846  0.03%  14.3    2s
*  428   339             122    366979.02530 366850.846  0.03%  14.3    2s

Cutting planes:
  Gomory: 104
  Implied bound: 330
  MIR: 76
  Flow cover: 63
  Relax-and-lift: 15

Explored 434 nodes (16809 simplex iterations) in 2.52 seconds (2.97 work units)
Thread count was 4 (of 128 available processors)

Solution count 2: 366979 366979 

Optimal solution found (tolerance 1.00e-03)
Warning: max constraint violation (7.8781e-07) exceeds tolerance
Best objective 3.669790253004e+05, best bound 3.668508463633e+05, gap 0.0349%
